Optimal - objective value -0.11014250
  30817 itb[1]                                        0.5                      0
  30818 itb[2]                                        0.5                      0
  30819 itb[3]                                        0.5                      0
  30820 itb[4]                                        0.5                      0
  30821 itb[5]                                        0.5                      0
  30822 itb[6]                                        0.5                      0
  30823 itb[7]                                        0.5                      0
  30824 itb[8]                                        0.5                      0
